NAME : rnd2_50.tsp
TYPE : TSP
DIMENSION : 50
EDGE_WEIGHT_TYPE : EUC_2D
NODE_COORD_SECTION
1 97 555
2 184 236
3 63 367
4 593 952
5 354 812
6 637 15
7 270 743
8 146 729
9 723 690
10 212 526
11 496 398
12 992 690
13 854 355
14 198 215
15 551 169
16 155 964
17 841 129
18 431 708
19 467 579
20 870 904
21 229 892
22 768 450
23 362 720
24 45 827
25 251 443
26 78 622
27 818 840
28 993 101
29 40 921
30 495 162
31 915 600
32 915 827
33 224 540
34 224 127
35 513 12
36 243 334
37 807 34
38 574 904
39 346 736
40 230 91
41 339 720
42 300 457
43 405 44
44 474 360
45 411 351
46 450 363
47 326 464
48 725 474
49 566 892
50 841 198
